db/data/312892155942062479322368294412290627154.z3.out
sat
-------------------
14.605558122
